
Gurobi 9.5.1 (linux64) logging started Mon Jun 13 01:24:41 2022

Set parameter LogFile to value "../results/logs/log_web-hudong.e_5_10_2022_06_12_23_13.log"
Gurobi Optimizer version 9.5.1 build v9.5.1rc2 (linux64)
Thread count: 8 physical cores, 8 logical processors, using up to 8 threads
Optimize a model with 80321 rows, 3949310 columns and 1502795 nonzeros
Model fingerprint: 0xb2f4293e
Variable types: 0 continuous, 3949310 integer (3949310 binary)
Coefficient statistics:
  Matrix range     [1e+00, 5e+00]
  Objective range  [1e+00, 1e+00]
  Bounds range     [1e+00, 1e+00]
  RHS range        [1e+00, 1e+01]
Found heuristic solution: objective 1055322.0000
Presolve removed 56432 rows and 3915090 columns
Presolve time: 3.76s
Presolved: 23889 rows, 34220 columns, 97813 nonzeros
Found heuristic solution: objective 1055352.0000
Variable types: 0 continuous, 34220 integer (30981 binary)

Root relaxation: objective 1.056555e+06, 12959 iterations, 0.07 seconds (0.07 work units)

    Nodes    |    Current Node    |     Objective Bounds      |     Work
 Expl Unexpl |  Obj  Depth IntInf | Incumbent    BestBd   Gap | It/Node Time

     0     0 1056554.89    0 1447 1055352.00 1056554.89  0.11%     -    5s
     0     0 1055555.91    0  282 1055352.00 1055555.91  0.02%     -    6s
H    0     0                    1055361.0000 1055555.91  0.02%     -    6s
H    0     0                    1055371.0000 1055555.91  0.02%     -    6s
H    0     0                    1055380.0000 1055555.91  0.02%     -    7s
H    0     0                    1055381.0000 1055551.47  0.02%     -    7s
     0     0 1055485.48    0  273 1055381.00 1055485.48  0.01%     -    7s
     0     0 1055476.56    0  229 1055381.00 1055476.56  0.01%     -    7s
     0     0 1055469.43    0  188 1055381.00 1055469.43  0.01%     -    8s
     0     0 1055469.37    0  187 1055381.00 1055469.37  0.01%     -    8s
     0     0 1055444.10    0  240 1055381.00 1055444.10  0.01%     -    8s
H    0     0                    1055397.0000 1055444.10  0.00%     -    8s
     0     0 1055439.13    0  150 1055397.00 1055439.13  0.00%     -    9s
     0     0 1055438.70    0  140 1055397.00 1055438.70  0.00%     -    9s
     0     0 1055432.53    0  155 1055397.00 1055432.53  0.00%     -    9s
     0     0 1055431.73    0  141 1055397.00 1055431.73  0.00%     -    9s
     0     0 1055431.73    0  146 1055397.00 1055431.73  0.00%     -    9s
     0     0 1055423.95    0  118 1055397.00 1055423.95  0.00%     -   10s
     0     0 1055423.25    0  110 1055397.00 1055423.25  0.00%     -   10s
     0     0 1055419.67    0   94 1055397.00 1055419.67  0.00%     -   10s
     0     0 1055419.67    0   98 1055397.00 1055419.67  0.00%     -   10s
     0     0 1055419.67    0   86 1055397.00 1055419.67  0.00%     -   10s
     0     0 1055419.67    0   86 1055397.00 1055419.67  0.00%     -   11s
     0     0 1055419.67    0   86 1055397.00 1055419.67  0.00%     -   11s
H    0     0                    1055401.0000 1055419.67  0.00%     -   11s
H    0     0                    1055410.0000 1055419.67  0.00%     -   11s
     0     2 1055418.50    0   86 1055410.00 1055418.50  0.00%     -   12s
   134    38 1055418.00   18   87 1055410.00 1055418.00  0.00%  14.6   15s
   746   330 1055412.33   93   43 1055410.00 1055418.00  0.00%   8.7   20s
  1827   221     cutoff  103      1055410.00 1055412.27  0.00%  10.1   25s
* 1906   221             105    1055411.0000 1055412.26  0.00%  10.3   25s

Cutting planes:
  Gomory: 162
  Cover: 118
  Implied bound: 38
  MIR: 908
  StrongCG: 55
  GUB cover: 1094
  Inf proof: 1
  Zero half: 165
  RLT: 235
  Relax-and-lift: 6

Explored 2395 nodes (39834 simplex iterations) in 25.93 seconds (31.50 work units)
Thread count was 8 (of 8 available processors)

Solution count 10: 1.05541e+06 1.05541e+06 1.0554e+06 ... 1.05532e+06

Optimal solution found (tolerance 0.00e+00)
Best objective 1.055411000000e+06, best bound 1.055411000000e+06, gap 0.0000%
